c n orig vars 92
p cnf 94 223
1 2 -93 0
3 4 -93 0
5 6 -93 0
7 8 -93 0
9 10 -93 0
11 12 -93 0
13 14 -93 0
15 16 -93 0
17 18 -93 0
19 20 -93 0
21 22 -93 0
23 24 -93 0
25 26 -93 0
27 28 -93 0
29 30 -93 0
31 32 -93 0
33 34 -93 0
35 36 -93 0
37 45 53 61 69 77 85 -94 0
38 46 54 62 70 78 86 -94 0
39 47 55 63 71 79 87 -94 0
40 48 56 64 72 80 88 -94 0
41 49 57 65 73 81 89 -94 0
42 50 58 66 74 82 90 -94 0
43 51 59 67 75 83 91 -94 0
44 52 60 68 76 84 92 -94 0
-37 -38 -94 0
-37 -39 -94 0
-37 -40 -94 0
-37 -41 -94 0
-37 -42 -94 0
-37 -43 -94 0
-37 -44 -94 0
-38 -39 -94 0
-38 -40 -94 0
-38 -41 -94 0
-38 -42 -94 0
-38 -43 -94 0
-38 -44 -94 0
-39 -40 -94 0
-39 -41 -94 0
-39 -42 -94 0
-39 -43 -94 0
-39 -44 -94 0
-40 -41 -94 0
-40 -42 -94 0
-40 -43 -94 0
-40 -44 -94 0
-41 -42 -94 0
-41 -43 -94 0
-41 -44 -94 0
-42 -43 -94 0
-42 -44 -94 0
-43 -44 -94 0
-45 -46 -94 0
-45 -47 -94 0
-45 -48 -94 0
-45 -49 -94 0
-45 -50 -94 0
-45 -51 -94 0
-45 -52 -94 0
-46 -47 -94 0
-46 -48 -94 0
-46 -49 -94 0
-46 -50 -94 0
-46 -51 -94 0
-46 -52 -94 0
-47 -48 -94 0
-47 -49 -94 0
-47 -50 -94 0
-47 -51 -94 0
-47 -52 -94 0
-48 -49 -94 0
-48 -50 -94 0
-48 -51 -94 0
-48 -52 -94 0
-49 -50 -94 0
-49 -51 -94 0
-49 -52 -94 0
-50 -51 -94 0
-50 -52 -94 0
-51 -52 -94 0
-53 -54 -94 0
-53 -55 -94 0
-53 -56 -94 0
-53 -57 -94 0
-53 -58 -94 0
-53 -59 -94 0
-53 -60 -94 0
-54 -55 -94 0
-54 -56 -94 0
-54 -57 -94 0
-54 -58 -94 0
-54 -59 -94 0
-54 -60 -94 0
-55 -56 -94 0
-55 -57 -94 0
-55 -58 -94 0
-55 -59 -94 0
-55 -60 -94 0
-56 -57 -94 0
-56 -58 -94 0
-56 -59 -94 0
-56 -60 -94 0
-57 -58 -94 0
-57 -59 -94 0
-57 -60 -94 0
-58 -59 -94 0
-58 -60 -94 0
-59 -60 -94 0
-61 -62 -94 0
-61 -63 -94 0
-61 -64 -94 0
-61 -65 -94 0
-61 -66 -94 0
-61 -67 -94 0
-61 -68 -94 0
-62 -63 -94 0
-62 -64 -94 0
-62 -65 -94 0
-62 -66 -94 0
-62 -67 -94 0
-62 -68 -94 0
-63 -64 -94 0
-63 -65 -94 0
-63 -66 -94 0
-63 -67 -94 0
-63 -68 -94 0
-64 -65 -94 0
-64 -66 -94 0
-64 -67 -94 0
-64 -68 -94 0
-65 -66 -94 0
-65 -67 -94 0
-65 -68 -94 0
-66 -67 -94 0
-66 -68 -94 0
-67 -68 -94 0
-69 -70 -94 0
-69 -71 -94 0
-69 -72 -94 0
-69 -73 -94 0
-69 -74 -94 0
-69 -75 -94 0
-69 -76 -94 0
-70 -71 -94 0
-70 -72 -94 0
-70 -73 -94 0
-70 -74 -94 0
-70 -75 -94 0
-70 -76 -94 0
-71 -72 -94 0
-71 -73 -94 0
-71 -74 -94 0
-71 -75 -94 0
-71 -76 -94 0
-72 -73 -94 0
-72 -74 -94 0
-72 -75 -94 0
-72 -76 -94 0
-73 -74 -94 0
-73 -75 -94 0
-73 -76 -94 0
-74 -75 -94 0
-74 -76 -94 0
-75 -76 -94 0
-77 -78 -94 0
-77 -79 -94 0
-77 -80 -94 0
-77 -81 -94 0
-77 -82 -94 0
-77 -83 -94 0
-77 -84 -94 0
-78 -79 -94 0
-78 -80 -94 0
-78 -81 -94 0
-78 -82 -94 0
-78 -83 -94 0
-78 -84 -94 0
-79 -80 -94 0
-79 -81 -94 0
-79 -82 -94 0
-79 -83 -94 0
-79 -84 -94 0
-80 -81 -94 0
-80 -82 -94 0
-80 -83 -94 0
-80 -84 -94 0
-81 -82 -94 0
-81 -83 -94 0
-81 -84 -94 0
-82 -83 -94 0
-82 -84 -94 0
-83 -84 -94 0
-85 -86 -94 0
-85 -87 -94 0
-85 -88 -94 0
-85 -89 -94 0
-85 -90 -94 0
-85 -91 -94 0
-85 -92 -94 0
-86 -87 -94 0
-86 -88 -94 0
-86 -89 -94 0
-86 -90 -94 0
-86 -91 -94 0
-86 -92 -94 0
-87 -88 -94 0
-87 -89 -94 0
-87 -90 -94 0
-87 -91 -94 0
-87 -92 -94 0
-88 -89 -94 0
-88 -90 -94 0
-88 -91 -94 0
-88 -92 -94 0
-89 -90 -94 0
-89 -91 -94 0
-89 -92 -94 0
-90 -91 -94 0
-90 -92 -94 0
-91 -92 -94 0
93 94 0
